o-FAPbI3; from FPB_Pna21.vasp           
   1.0000000000000000     
     9.0193899931757802    0.0000000000000000    0.0000000000000000
     0.0000000000000000    8.7777678445653162    0.0000000000000000
     0.0000000000000000    0.0000000000000000   12.7961868062944486
  C               N               H               Pb              I             
     4     8    20     4    12
Direct
     0.5079545620594851    0.0406959883747638    0.2475946235704422
     0.0079545554343785    0.4593040156808086    0.7475946208954544
     0.9920454334685082    0.5406959860585880    0.2475946299923701
     0.4920454478785191    0.9593040127881087    0.7475946256013860
     0.5705946771768488    0.9354362274290705    0.1897252141182125
     0.0705946740239366    0.5645637727658527    0.6897252201605891
     0.1310336582348178    0.5838994807281046    0.2399588818968306
     0.6310336640152745    0.9161005167449354    0.7399588856927697
     0.3689663406760989    0.0838994856595276    0.2399588837149887
     0.8689663414621858    0.4161005194902584    0.7399588873068386
     0.9294053217315231    0.4354362199708706    0.1897252216917170
     0.4294053329446625    0.0645637684645837    0.6897252229388681
     0.5763163080256496    0.0964013618091920    0.3070350010383273
     0.0763163041439384    0.4035986538439506    0.8070350065760273
     0.9236836942065133    0.5964013535599980    0.3070350101048526
     0.4236837047439705    0.9035986570811895    0.8070350168177974
     0.6816203964682235    0.9153350004290042    0.1981420696355345
     0.1816203953774488    0.5846650008662726    0.6981420678013572
     0.1727440398663828    0.6618424652955209    0.2915835922463332
     0.6727440483713266    0.8381575300147407    0.7915835946568773
     0.5137159496301194    0.8799864858485240    0.1317994637689628
     0.0137159530701184    0.6200135182310216    0.6317994618654600
     0.2027680669080062    0.5368550561063357    0.1875867459194599
     0.7027680811919139    0.9631449364772253    0.6875867437071860
     0.2972319239003343    0.0368550498131778    0.1875867509889692
     0.7972319185576198    0.4631449498156998    0.6875867489999620
     0.9862840415021581    0.3799864786951984    0.1317994707683488
     0.4862840485959766    0.1200135117898101    0.6317994631872471
     0.3272559576570426    0.1618424731988938    0.2915835925839973
     0.8272559591671836    0.3381575261065085    0.7915835908767331
     0.8183796010724744    0.4153349919539673    0.1981420818729491
     0.3183796102733418    0.0846649986020452    0.6981420736952382
     0.5023441722619808    0.4879288203356366    0.9810849892003165
     0.0023441785924915    0.0120711836670638    0.4810849868122521
     0.9976558244282330    0.9879288178551919    0.9810849914872694
     0.4976558298475982    0.5120711849063111    0.4810849885500975
     0.7958928941106866    0.7105293335369602    0.5032699314851331
     0.9606598229172731    0.9944623124655483    0.2320592544955259
     0.7060293635732524    0.1956508126848428    0.9614522052702348
     0.2041070863312036    0.2894707010478275    0.0032699320500760
     0.2060293779368493    0.3043491755398583    0.4614522129329701
     0.2939706246777947    0.8043491828284943    0.4614522154174112
     0.7939706408800884    0.6956508110307111    0.9614522100061300
     0.7041071043942746    0.2105293303375289    0.5032699287679750
     0.4606598128207439    0.5055376617516696    0.7320592563212425
     0.0393401777688836    0.0055376740307987    0.7320592521911489
     0.2958929104798871    0.7894706933117497    0.0032699289927811
     0.5393401671427811    0.4944623109760682    0.2320592517272514

  0.00000000E+00  0.00000000E+00  0.00000000E+00
  0.00000000E+00  0.00000000E+00  0.00000000E+00
  0.00000000E+00  0.00000000E+00  0.00000000E+00
  0.00000000E+00  0.00000000E+00  0.00000000E+00
  0.00000000E+00  0.00000000E+00  0.00000000E+00
  0.00000000E+00  0.00000000E+00  0.00000000E+00
  0.00000000E+00  0.00000000E+00  0.00000000E+00
  0.00000000E+00  0.00000000E+00  0.00000000E+00
  0.00000000E+00  0.00000000E+00  0.00000000E+00
  0.00000000E+00  0.00000000E+00  0.00000000E+00
  0.00000000E+00  0.00000000E+00  0.00000000E+00
  0.00000000E+00  0.00000000E+00  0.00000000E+00
  0.00000000E+00  0.00000000E+00  0.00000000E+00
  0.00000000E+00  0.00000000E+00  0.00000000E+00
  0.00000000E+00  0.00000000E+00  0.00000000E+00
  0.00000000E+00  0.00000000E+00  0.00000000E+00
  0.00000000E+00  0.00000000E+00  0.00000000E+00
  0.00000000E+00  0.00000000E+00  0.00000000E+00
  0.00000000E+00  0.00000000E+00  0.00000000E+00
  0.00000000E+00  0.00000000E+00  0.00000000E+00
  0.00000000E+00  0.00000000E+00  0.00000000E+00
  0.00000000E+00  0.00000000E+00  0.00000000E+00
  0.00000000E+00  0.00000000E+00  0.00000000E+00
  0.00000000E+00  0.00000000E+00  0.00000000E+00
  0.00000000E+00  0.00000000E+00  0.00000000E+00
  0.00000000E+00  0.00000000E+00  0.00000000E+00
  0.00000000E+00  0.00000000E+00  0.00000000E+00
  0.00000000E+00  0.00000000E+00  0.00000000E+00
  0.00000000E+00  0.00000000E+00  0.00000000E+00
  0.00000000E+00  0.00000000E+00  0.00000000E+00
  0.00000000E+00  0.00000000E+00  0.00000000E+00
  0.00000000E+00  0.00000000E+00  0.00000000E+00
  0.00000000E+00  0.00000000E+00  0.00000000E+00
  0.00000000E+00  0.00000000E+00  0.00000000E+00
  0.00000000E+00  0.00000000E+00  0.00000000E+00
  0.00000000E+00  0.00000000E+00  0.00000000E+00
  0.00000000E+00  0.00000000E+00  0.00000000E+00
  0.00000000E+00  0.00000000E+00  0.00000000E+00
  0.00000000E+00  0.00000000E+00  0.00000000E+00
  0.00000000E+00  0.00000000E+00  0.00000000E+00
  0.00000000E+00  0.00000000E+00  0.00000000E+00
  0.00000000E+00  0.00000000E+00  0.00000000E+00
  0.00000000E+00  0.00000000E+00  0.00000000E+00
  0.00000000E+00  0.00000000E+00  0.00000000E+00
  0.00000000E+00  0.00000000E+00  0.00000000E+00
  0.00000000E+00  0.00000000E+00  0.00000000E+00
  0.00000000E+00  0.00000000E+00  0.00000000E+00
  0.00000000E+00  0.00000000E+00  0.00000000E+00
