C  N  H  Pb I 
 1.0000000000000000
     8.9976141856749656    0.0000000000000000    0.0000000000000000
     0.0000000000000000    8.9976141856749656    0.0000000000000000
     0.0000000000000000    0.0000000000000000    6.2792145099759482
 C   N   H   Pb  I  
   2   4  10   2   6
Selective dynamics
Direct
  0.5000018554397700  0.5000022537173073  0.5728655939998527   T   T   T
  0.0000018554397705  0.0000022537173075  0.5728655939998527   T   T   T
  0.5919852234521714  0.5919856217297086  0.4780735612707500   T   T   T
  0.4080184874273690  0.4080188857049060  0.4780735612707500   T   T   T
  0.0919852234521716  0.9080188857049056  0.4780735612707500   T   T   T
  0.9080184874273680  0.0919856217297086  0.4780735612707500   T   T   T
  0.5000018554397700  0.5000022537173073  0.7465945689231971   T   T   T
  0.6582685472111347  0.6582689454886719  0.5691827672535950   T   T   T
  0.6020548687806644  0.6020552670582019  0.3169222595474071   T   T   T
  0.3979488420988757  0.3979492403764128  0.3169222595474071   T   T   T
  0.3417351636684058  0.3417355619459430  0.5691827672535950   T   T   T
  0.0000018554397705  0.0000022537173075  0.7465945689231971   T   T   T
  0.1582685472111348  0.8417355619459422  0.5691827672535950   T   T   T
  0.1020548687806649  0.8979492403764118  0.3169222595474071   T   T   T
  0.8979488420988742  0.1020552670582021  0.3169222595474071   T   T   T
  0.8417351636684052  0.1582689454886720  0.5691827672535950   T   T   T
  0.0000018554397705  0.5000022537173073 -0.0104610536786278   T   T   T
  0.5000018554397700  0.0000022537173075 -0.0104610536786278   T   T   T
  0.0000018554397705  0.5000022537173073  0.4886130454800603   T   T   T
  0.5000018554397700  0.0000022537173075  0.4886130454800603   T   T   T
  0.2226998148786101  0.2227002131561469 -0.0134437302256633   T   T   T
  0.2773038960009310  0.7227002131561465 -0.0134437302256633   T   T   T
  0.7226998148786099  0.2773042942784679 -0.0134437302256633   T   T   T
  0.7773038960009305  0.7773042942784673 -0.0134437302256633   T   T   T
